NAME : rat99.tsp
COMMENT : Optimal tour for rat99.tsp
TYPE : TOUR
DIMENSION : 99
Total Length: 1325.8880000869156
TOUR_SECTION
1
4
5
7
8
9
6
14
13
22
21
31
32
33
42
43
34
26
25
24
23
15
16
17
18
27
35
36
44
45
51
52
53
54
63
72
81
80
79
78
77
76
84
85
86
95
87
88
89
90
99
98
97
96
94
93
92
91
83
82
73
74
75
66
65
64
55
46
47
56
57
58
59
67
68
69
70
71
62
61
60
49
50
41
40
39
48
38
37
28
29
30
19
20
11
12
3
2
10
-1
EOF
